105 122 169 57 128 5 183 60 160 27 124 33 34 2 90 12 112 150 43 107 132 58 19 20 179 67 87 17 18 22 158 141 97 95 114 98 193 134 7 191 174 11 9 156 125 131 185 36 166 153 44 89 108 189 147 121 144 162 68 137 113 99 198 78 84 94 103 13 190 120 48 76 184 178 1 54 37 31 177 143 41 66 167 24 26 0 157 180 65 175 199 79 83 32 74 140 192 145 30 75 91 176 100 35 47 182 164 46 186 148 73 6 42 188 195 51 149 102 45 151 71 117 152 40 52 50 136 115 129 172 62 64 119 165 55 163 154 4 93 72 161 197 109 155 142 101 86 8 171 196 3 15 88 10 39 16 69 56 25 194 96 85 106 21 127 61 80 28 133 116 111 110 118 168 146 59 139 29 38 170 123 23 104 53 63 181 187 14 82 92 70 173 135 126 81 138 130 159 77 49 

